<number of tasks>
58

<cycle time>
92

<task times>
1 10
2 53
3 41
4 36
5 35
6 17
7 34
8 23
9 14
10 52
11 33
12 34
13 12
14 52
15 12
16 33
17 44
18 7
19 15
20 13
21 29
22 37
23 43
24 23
25 24
26 9
27 16
28 12
29 26
30 22
31 51
32 47
33 34
34 23
35 12
36 52
37 12
38 33
39 44
40 7
41 15
42 13
43 29
44 37
45 43
46 23
47 24
48 9
49 16
50 12
51 26
52 12
53 52
54 12
55 33
56 44
57 7
58 15

<precedence relations>
1,9
2,25
3,21
3,22
4,10
5,36
6,23
6,24
7,43
8,44
9,11
11,13
11,14
11,15
12,17
13,17
14,17
15,17
16,18
17,20
18,19
19,23
20,21
20,25
21,26
21,44
22,27
23,31
24,31
25,38
26,29
27,30
28,32
28,33
29,31
30,34
31,36
32,45
33,35
34,36
35,43
36,37
36,38
37,39
37,40
37,41
38,52
39,43
40,43
41,42
42,43
43,45
44,45
45,46
45,48
45,49
46,47
46,50
47,51
48,55
49,58
50,58
51,52
52,53
53,54
54,55
54,56
55,57
56,57
57,58

<setup times forward>
1,3:2
1,4:2
1,5:1
1,7:1
1,8:1
1,9:2
1,10:2
1,12:1
1,16:1
1,18:1
1,19:1
1,22:2
1,23:1
1,27:2
1,30:2
1,32:1
1,33:1
1,34:1
2,3:2
2,4:2
2,5:1
2,7:1
2,8:1
2,9:2
2,10:2
2,11:1
2,12:1
2,14:1
2,15:1
2,16:1
2,18:1
2,19:1
2,21:2
2,22:2
2,23:1
2,25:2
2,26:1
2,27:2
2,29:1
2,30:2
2,31:1
2,32:1
2,33:1
2,34:1
2,36:3
2,37:3
2,41:3
2,42:3
2,44:1
2,45:1
2,46:2
2,47:2
2,48:2
2,49:1
2,50:2
2,51:3
3,1:2
3,2:2
3,5:1
3,6:2
3,7:3
3,8:1
3,11:3
3,12:1
3,13:2
3,14:1
3,15:3
3,16:1
3,17:2
3,18:1
3,19:3
3,20:2
3,21:4
3,23:3
3,24:2
3,25:4
3,28:2
3,32:3
3,33:1
3,35:2
4,1:2
4,2:2
4,5:1
4,6:2
4,7:3
4,8:1
4,11:3
4,12:1
4,13:2
4,14:1
4,15:3
4,16:1
4,17:2
4,18:1
4,19:3
4,20:2
4,21:4
4,23:3
4,24:2
4,25:4
4,26:1
4,27:4
4,28:2
4,29:1
4,30:4
4,31:3
4,32:3
4,33:1
4,34:1
4,35:2
4,36:5
4,37:5
4,38:1
4,39:2
4,40:2
4,41:5
4,42:5
4,43:2
4,44:3
4,45:1
4,49:1
4,51:5
4,52:5
4,53:5
4,54:5
4,55:5
4,56:5
5,1:1
5,2:1
5,3:1
5,4:1
5,6:1
5,7:2
5,9:1
5,10:1
5,11:2
5,13:1
5,15:2
5,17:1
5,19:2
5,20:1
5,21:3
5,22:1
5,23:2
5,24:1
5,25:3
5,27:3
5,28:1
5,30:3
5,31:2
5,32:2
5,35:1
5,36:4
5,44:2
6,3:2
6,4:2
6,5:1
6,7:1
6,8:1
6,9:2
6,10:2
6,11:1
6,12:1
6,14:1
6,15:1
6,16:1
6,18:1
6,19:1
6,21:2
6,22:2
6,23:1
6,25:2
6,26:1
6,27:2
6,29:1
6,30:2
6,32:1
6,33:1
6,34:1
6,44:1
7,1:1
7,2:1
7,3:3
7,4:3
7,5:2
7,6:1
7,8:2
7,9:3
7,10:3
7,12:2
7,13:1
7,14:2
7,16:2
7,17:1
7,18:2
7,20:1
7,21:1
7,22:3
7,24:1
7,25:1
7,26:2
7,27:1
7,28:1
7,29:2
7,30:1
7,33:2
7,34:2
7,35:1
7,36:2
7,37:2
7,38:2
7,39:1
7,40:1
7,41:2
7,42:2
7,43:1
8,1:1
8,2:1
8,3:1
8,4:1
8,6:1
8,7:2
8,9:1
8,10:1
8,11:2
8,13:1
8,15:2
8,17:1
8,19:2
8,20:1
8,21:3
8,22:1
8,23:2
8,24:1
8,25:3
8,27:3
8,28:1
8,30:3
8,31:2
8,32:2
8,35:1
8,36:4
8,37:4
8,39:1
8,40:1
8,41:4
8,42:4
8,43:1
8,44:2
9,2:2
9,5:1
9,6:2
9,7:3
9,8:1
9,11:3
9,12:1
9,16:1
9,18:1
9,19:3
9,23:3
9,24:2
9,27:4
9,28:2
9,30:4
9,32:3
9,33:1
9,34:1
9,35:2
10,1:2
10,2:2
10,5:1
10,6:2
10,7:3
10,8:1
10,11:3
10,12:1
10,13:2
10,14:1
10,15:3
10,16:1
10,17:2
10,18:1
10,19:3
10,20:2
10,21:4
10,23:3
10,24:2
10,25:4
10,26:1
10,27:4
10,28:2
10,29:1
10,30:4
10,31:3
10,32:3
10,33:1
10,34:1
10,35:2
10,36:5
10,37:5
10,38:1
10,39:2
10,40:2
10,41:5
10,42:5
10,43:2
10,44:3
10,45:1
10,49:1
10,51:5
10,52:5
10,53:5
10,54:5
10,55:5
10,56:5
11,2:1
11,3:3
11,4:3
11,5:2
11,6:1
11,8:2
11,10:3
11,12:2
11,13:1
11,14:2
11,16:2
11,18:2
11,22:3
11,24:1
11,27:1
11,28:1
11,30:1
11,33:2
11,34:2
11,35:1
12,1:1
12,2:1
12,3:1
12,4:1
12,6:1
12,7:2
12,9:1
12,10:1
12,11:2
12,13:1
12,15:2
12,17:1
12,19:2
12,22:1
12,23:2
12,24:1
12,27:3
12,28:1
12,30:3
12,32:2
12,35:1
13,3:2
13,4:2
13,5:1
13,7:1
13,8:1
13,10:2
13,12:1
13,14:1
13,15:1
13,16:1
13,18:1
13,19:1
13,22:2
13,23:1
13,27:2
13,30:2
13,32:1
13,33:1
13,34:1
14,2:1
14,3:1
14,4:1
14,6:1
14,7:2
14,10:1
14,13:1
14,15:2
14,17:1
14,19:2
14,22:1
14,23:2
14,24:1
14,27:3
14,28:1
14,30:3
14,32:2
14,35:1
15,2:1
15,3:3
15,4:3
15,5:2
15,6:1
15,8:2
15,10:3
15,12:2
15,13:1
15,14:2
15,16:2
15,17:1
15,18:2
15,22:3
15,24:1
15,27:1
15,28:1
15,30:1
15,33:2
15,34:2
15,35:1
16,1:1
16,2:1
16,3:1
16,4:1
16,6:1
16,7:2
16,9:1
16,10:1
16,11:2
16,13:1
16,15:2
16,17:1
16,20:1
16,21:3
16,22:1
16,24:1
16,25:3
16,27:3
16,28:1
16,30:3
16,32:2
16,35:1
16,44:2
17,3:2
17,4:2
17,5:1
17,7:1
17,8:1
17,10:2
17,16:1
17,18:1
17,19:1
17,22:2
17,23:1
17,27:2
17,30:2
17,32:1
17,33:1
17,34:1
18,1:1
18,2:1
18,3:1
18,4:1
18,6:1
18,7:2
18,9:1
18,10:1
18,11:2
18,13:1
18,15:2
18,17:1
18,19:2
18,20:1
18,21:3
18,22:1
18,24:1
18,25:3
18,27:3
18,28:1
18,30:3
18,32:2
18,35:1
18,44:2
19,1:1
19,2:1
19,3:3
19,4:3
19,5:2
19,6:1
19,8:2
19,9:3
19,10:3
19,12:2
19,13:1
19,14:2
19,17:1
19,20:1
19,21:1
19,22:3
19,24:1
19,25:1
19,26:2
19,27:1
19,28:1
19,29:2
19,30:1
19,33:2
19,34:2
19,35:1
20,3:2
20,4:2
20,5:1
20,7:1
20,8:1
20,10:2
20,16:1
20,18:1
20,19:1
20,21:2
20,22:2
20,23:1
20,25:2
20,27:2
20,30:2
20,32:1
20,33:1
20,34:1
21,2:2
21,4:4
21,5:3
21,6:2
21,7:1
21,8:3
21,10:4
21,16:3
21,18:3
21,19:1
21,22:4
21,23:1
21,24:2
21,26:3
21,28:2
21,32:1
21,33:3
21,34:3
21,35:2
21,44:1
22,1:2
22,2:2
22,5:1
22,6:2
22,7:3
22,8:1
22,11:3
22,12:1
22,13:2
22,14:1
22,15:3
22,16:1
22,17:2
22,18:1
22,19:3
22,20:2
22,21:4
22,23:3
22,24:2
22,25:4
22,26:1
22,27:4
22,28:2
22,29:1
22,31:3
22,32:3
22,33:1
22,35:2
22,44:3
23,1:1
23,2:1
23,3:3
23,4:3
23,5:2
23,8:2
23,9:3
23,10:3
23,12:2
23,13:1
23,14:2
23,17:1
23,20:1
23,21:1
23,22:3
23,24:1
23,25:1
23,26:2
23,27:1
23,28:1
23,29:2
23,30:1
23,33:2
23,34:2
23,35:1
24,3:2
24,4:2
24,5:1
24,7:1
24,8:1
24,9:2
24,10:2
24,11:1
24,12:1
24,14:1
24,15:1
24,16:1
24,18:1
24,19:1
24,21:2
24,22:2
24,23:1
24,25:2
24,26:1
24,27:2
24,29:1
24,30:2
24,31:1
24,32:1
24,33:1
24,34:1
24,44:1
25,3:4
25,4:4
25,5:3
25,6:2
25,7:1
25,8:3
25,10:4
25,16:3
25,18:3
25,19:1
25,22:4
25,23:1
25,24:2
25,26:3
25,28:2
25,29:3
25,31:1
25,32:1
25,33:3
25,34:3
25,35:2
25,36:1
25,37:1
25,38:3
25,39:2
25,40:2
25,41:1
25,42:1
25,43:2
25,44:1
25,45:3
25,46:4
25,47:4
25,48:4
25,49:3
25,50:4
25,51:1
26,2:1
26,4:1
26,6:1
26,7:2
26,10:1
26,19:2
26,22:1
26,23:2
26,24:1
26,25:3
26,27:3
26,28:1
26,30:3
26,32:2
26,35:1
26,44:2
27,1:2
27,2:2
27,4:4
27,5:3
27,6:2
27,7:1
27,8:3
27,9:4
27,10:4
27,11:1
27,12:3
27,13:2
27,14:3
27,15:1
27,16:3
27,17:2
27,18:3
27,19:1
27,20:2
27,23:1
27,24:2
27,26:3
27,28:2
27,29:3
27,31:1
27,32:1
27,33:3
27,35:2
27,44:1
28,3:2
28,4:2
28,5:1
28,7:1
28,8:1
28,9:2
28,10:2
28,11:1
28,12:1
28,14:1
28,15:1
28,16:1
28,18:1
28,19:1
28,21:2
28,22:2
28,23:1
28,25:2
28,26:1
28,27:2
28,29:1
28,30:2
28,31:1
28,32:1
28,33:1
28,34:1
28,36:3
28,37:3
28,38:1
28,41:3
28,42:3
28,44:1
29,2:1
29,4:1
29,6:1
29,7:2
29,10:1
29,19:2
29,22:1
29,23:2
29,24:1
29,25:3
29,27:3
29,28:1
29,30:3
29,31:2
29,32:2
29,35:1
29,44:2
30,1:2
30,2:2
30,4:4
30,5:3
30,6:2
30,7:1
30,8:3
30,9:4
30,10:4
30,11:1
30,12:3
30,13:2
30,14:3
30,15:1
30,16:3
30,17:2
30,18:3
30,19:1
30,20:2
30,23:1
30,24:2
30,26:3
30,28:2
30,29:3
30,31:1
30,32:1
30,33:3
30,34:3
30,35:2
30,44:1
31,2:1
31,4:3
31,5:2
31,8:2
31,10:3
31,22:3
31,25:1
31,27:1
31,28:1
31,30:1
31,33:2
31,34:2
31,35:1
31,36:2
32,1:1
32,2:1
32,3:3
32,4:3
32,5:2
32,6:1
32,8:2
32,9:3
32,10:3
32,12:2
32,13:1
32,14:2
32,16:2
32,17:1
32,18:2
32,20:1
32,21:1
32,22:3
32,24:1
32,25:1
32,26:2
32,27:1
32,29:2
32,30:1
32,33:2
32,34:2
32,35:1
32,36:2
32,37:2
32,38:2
32,39:1
32,40:1
32,41:2
32,42:2
32,43:1
32,45:2
33,1:1
33,2:1
33,3:1
33,4:1
33,6:1
33,7:2
33,9:1
33,10:1
33,11:2
33,13:1
33,15:2
33,17:1
33,19:2
33,20:1
33,21:3
33,22:1
33,23:2
33,24:1
33,25:3
33,27:3
33,30:3
33,31:2
33,32:2
33,35:1
33,36:4
33,37:4
33,39:1
33,40:1
33,41:4
33,42:4
33,44:2
34,1:1
34,2:1
34,4:1
34,6:1
34,7:2
34,9:1
34,10:1
34,11:2
34,13:1
34,15:2
34,17:1
34,19:2
34,20:1
34,21:3
34,23:2
34,24:1
34,25:3
34,28:1
34,31:2
34,32:2
34,35:1
34,36:4
34,44:2
35,3:2
35,4:2
35,5:1
35,7:1
35,8:1
35,9:2
35,10:2
35,11:1
35,12:1
35,14:1
35,15:1
35,16:1
35,18:1
35,19:1
35,21:2
35,22:2
35,23:1
35,25:2
35,26:1
35,27:2
35,29:1
35,30:2
35,31:1
35,32:1
35,34:1
35,36:3
35,37:3
35,38:1
35,41:3
35,42:3
35,44:1
36,2:3
36,4:5
36,7:2
36,8:4
36,10:5
36,25:1
36,28:3
36,32:2
36,33:4
36,35:3
36,38:4
36,44:2
37,2:3
37,4:5
37,7:2
37,8:4
37,10:5
37,25:1
37,28:3
37,32:2
37,33:4
37,35:3
37,38:4
37,39:3
37,40:3
37,44:2
38,4:1
38,7:2
38,10:1
38,28:1
38,32:2
38,35:1
38,37:4
38,39:1
38,40:1
38,41:4
38,42:4
38,43:1
38,44:2
38,46:1
38,47:1
38,48:1
38,50:1
38,51:4
38,52:4
39,4:2
39,7:1
39,8:1
39,10:2
39,25:2
39,32:1
39,33:1
39,38:1
39,41:3
39,42:3
39,44:1
40,4:2
40,7:1
40,8:1
40,10:2
40,25:2
40,32:1
40,33:1
40,38:1
40,41:3
40,42:3
40,44:1
41,2:3
41,4:5
41,7:2
41,8:4
41,10:5
41,25:1
41,28:3
41,32:2
41,33:4
41,35:3
41,38:4
41,39:3
41,40:3
41,44:2
42,2:3
42,4:5
42,7:2
42,8:4
42,10:5
42,25:1
42,28:3
42,32:2
42,33:4
42,35:3
42,38:4
42,39:3
42,40:3
42,43:3
42,44:2
43,4:2
43,8:1
43,10:2
43,25:2
43,32:1
43,38:1
43,44:1
43,45:1
44,2:1
44,4:3
44,5:2
44,6:1
44,10:3
44,16:2
44,18:2
44,22:3
44,24:1
44,25:1
44,26:2
44,27:1
44,28:1
44,29:2
44,30:1
44,33:2
44,34:2
44,35:1
44,36:2
44,37:2
44,38:2
44,39:1
44,40:1
44,41:2
44,42:2
44,43:1
44,45:2
45,2:1
45,4:1
45,10:1
45,25:3
45,46:1
45,48:1
46,2:2
46,25:4
46,38:1
46,49:1
47,2:2
47,25:4
47,38:1
47,49:1
47,51:5
48,2:2
48,25:4
48,38:1
48,49:1
48,51:5
48,52:5
48,53:5
48,54:5
48,55:5
48,56:5
49,2:1
49,4:1
49,10:1
49,25:3
49,46:1
49,47:1
49,48:1
49,50:1
49,51:4
49,52:4
49,53:4
49,54:4
49,55:4
49,56:4
49,57:1
49,58:1
50,2:2
50,25:4
50,38:1
50,49:1
50,51:5
50,52:5
50,53:5
50,54:5
50,55:5
50,56:5
51,2:3
51,4:5
51,10:5
51,25:1
51,38:4
51,48:5
51,49:4
51,50:5
52,4:5
52,10:5
52,48:5
52,49:4
52,50:5
53,4:5
53,10:5
53,48:5
53,49:4
53,50:5
54,4:5
54,10:5
54,48:5
54,49:4
54,50:5
55,4:5
55,10:5
55,49:4
55,50:5
55,57:5
56,4:5
56,10:5
56,48:5
56,49:4
56,50:5
56,57:5
57,49:1

<setup times backward>
1,7:1
1,19:1
1,23:1
1,27:2
1,30:2
1,32:1
2,7:1
2,11:1
2,15:1
2,19:1
2,21:2
2,23:1
2,27:2
2,30:2
2,31:1
2,32:1
2,36:3
2,37:3
2,41:3
2,42:3
2,44:1
2,51:3
3,1:2
3,2:2
3,5:1
3,6:2
3,7:3
3,8:1
3,11:3
3,12:1
3,13:2
3,14:1
3,15:3
3,16:1
3,17:2
3,18:1
3,19:3
3,20:2
3,23:3
3,24:2
3,25:4
3,28:2
3,32:3
3,33:1
3,35:2
4,1:2
4,2:2
4,5:1
4,6:2
4,7:3
4,8:1
4,11:3
4,12:1
4,13:2
4,14:1
4,15:3
4,16:1
4,17:2
4,18:1
4,19:3
4,20:2
4,21:4
4,23:3
4,24:2
4,25:4
4,26:1
4,27:4
4,28:2
4,29:1
4,30:4
4,31:3
4,32:3
4,33:1
4,34:1
4,35:2
4,36:5
4,37:5
4,38:1
4,39:2
4,40:2
4,41:5
4,42:5
4,43:2
4,44:3
4,45:1
4,49:1
4,51:5
4,52:5
4,53:5
4,54:5
4,55:5
4,56:5
5,1:1
5,2:1
5,6:1
5,7:2
5,11:2
5,13:1
5,15:2
5,17:1
5,19:2
5,20:1
5,21:3
5,23:2
5,24:1
5,25:3
5,27:3
5,28:1
5,30:3
5,31:2
5,32:2
5,35:1
5,44:2
6,7:1
6,11:1
6,15:1
6,19:1
6,21:2
6,25:2
6,27:2
6,30:2
6,32:1
6,44:1
7,21:1
7,25:1
7,27:1
7,30:1
7,36:2
7,37:2
7,41:2
7,42:2
8,1:1
8,2:1
8,6:1
8,7:2
8,11:2
8,13:1
8,15:2
8,17:1
8,19:2
8,20:1
8,21:3
8,23:2
8,24:1
8,25:3
8,27:3
8,28:1
8,30:3
8,31:2
8,32:2
8,35:1
8,36:4
8,37:4
8,39:1
8,40:1
8,41:4
8,42:4
8,43:1
9,1:2
9,2:2
9,5:1
9,6:2
9,7:3
9,8:1
9,12:1
9,16:1
9,18:1
9,19:3
9,23:3
9,24:2
9,27:4
9,28:2
9,30:4
9,32:3
9,33:1
9,34:1
9,35:2
10,1:2
10,2:2
10,5:1
10,6:2
10,7:3
10,8:1
10,11:3
10,12:1
10,13:2
10,14:1
10,15:3
10,16:1
10,17:2
10,18:1
10,19:3
10,20:2
10,21:4
10,23:3
10,24:2
10,25:4
10,26:1
10,27:4
10,28:2
10,29:1
10,30:4
10,31:3
10,32:3
10,33:1
10,34:1
10,35:2
10,36:5
10,37:5
10,38:1
10,39:2
10,40:2
10,41:5
10,42:5
10,43:2
10,44:3
10,45:1
10,49:1
10,51:5
10,52:5
10,53:5
10,54:5
10,55:5
10,56:5
11,27:1
11,30:1
12,1:1
12,2:1
12,6:1
12,7:2
12,11:2
12,13:1
12,15:2
12,19:2
12,23:2
12,24:1
12,27:3
12,28:1
12,30:3
12,32:2
12,35:1
13,7:1
13,11:1
13,15:1
13,19:1
13,23:1
13,27:2
13,30:2
13,32:1
14,1:1
14,2:1
14,6:1
14,7:2
14,11:2
14,13:1
14,15:2
14,19:2
14,23:2
14,24:1
14,27:3
14,28:1
14,30:3
14,32:2
14,35:1
15,27:1
15,30:1
16,1:1
16,2:1
16,6:1
16,7:2
16,11:2
16,13:1
16,15:2
16,17:1
16,20:1
16,21:3
16,24:1
16,25:3
16,27:3
16,28:1
16,30:3
16,32:2
16,35:1
16,44:2
17,7:1
17,11:1
17,15:1
17,19:1
17,23:1
17,27:2
17,30:2
17,32:1
18,1:1
18,2:1
18,6:1
18,7:2
18,11:2
18,13:1
18,15:2
18,17:1
18,20:1
18,21:3
18,24:1
18,25:3
18,27:3
18,28:1
18,30:3
18,32:2
18,35:1
18,44:2
19,21:1
19,25:1
19,27:1
19,30:1
20,7:1
20,11:1
20,15:1
20,19:1
20,23:1
20,27:2
20,30:2
20,32:1
22,1:2
22,2:2
22,5:1
22,6:2
22,7:3
22,8:1
22,11:3
22,12:1
22,13:2
22,14:1
22,15:3
22,16:1
22,17:2
22,18:1
22,19:3
22,20:2
22,21:4
22,23:3
22,24:2
22,25:4
22,26:1
22,28:2
22,29:1
22,31:3
22,32:3
22,33:1
22,35:2
22,44:3
23,21:1
23,25:1
23,27:1
23,30:1
24,7:1
24,11:1
24,15:1
24,19:1
24,21:2
24,23:1
24,25:2
24,27:2
24,30:2
24,32:1
24,44:1
25,36:1
25,37:1
25,41:1
25,42:1
25,51:1
26,1:1
26,2:1
26,6:1
26,7:2
26,11:2
26,13:1
26,15:2
26,17:1
26,19:2
26,20:1
26,21:3
26,23:2
26,24:1
26,25:3
26,27:3
26,28:1
26,30:3
26,32:2
26,35:1
26,44:2
28,7:1
28,11:1
28,15:1
28,19:1
28,21:2
28,23:1
28,25:2
28,27:2
28,30:2
28,31:1
28,36:3
28,37:3
28,41:3
28,42:3
28,44:1
29,1:1
29,2:1
29,6:1
29,7:2
29,11:2
29,13:1
29,15:2
29,17:1
29,19:2
29,20:1
29,21:3
29,23:2
29,24:1
29,25:3
29,27:3
29,28:1
29,30:3
29,32:2
29,35:1
29,44:2
31,21:1
31,25:1
31,27:1
31,30:1
32,21:1
32,25:1
32,27:1
32,30:1
32,36:2
32,37:2
32,41:2
32,42:2
33,1:1
33,2:1
33,6:1
33,7:2
33,11:2
33,13:1
33,15:2
33,17:1
33,19:2
33,20:1
33,21:3
33,23:2
33,24:1
33,25:3
33,27:3
33,28:1
33,30:3
33,31:2
33,32:2
33,36:4
33,37:4
33,39:1
33,40:1
33,41:4
33,42:4
33,44:2
34,1:1
34,2:1
34,6:1
34,7:2
34,11:2
34,13:1
34,15:2
34,17:1
34,19:2
34,20:1
34,21:3
34,23:2
34,24:1
34,25:3
34,27:3
34,28:1
34,30:3
34,31:2
34,32:2
34,35:1
34,44:2
35,7:1
35,11:1
35,15:1
35,19:1
35,21:2
35,23:1
35,25:2
35,27:2
35,30:2
35,31:1
35,32:1
35,36:3
35,37:3
35,41:3
35,42:3
35,44:1
38,1:1
38,2:1
38,6:1
38,7:2
38,11:2
38,13:1
38,15:2
38,17:1
38,19:2
38,20:1
38,21:3
38,23:2
38,24:1
38,25:3
38,27:3
38,28:1
38,30:3
38,31:2
38,32:2
38,35:1
38,36:4
38,37:4
38,39:1
38,40:1
38,41:4
38,42:4
38,43:1
38,44:2
38,51:4
39,7:1
39,11:1
39,15:1
39,19:1
39,21:2
39,23:1
39,25:2
39,27:2
39,30:2
39,31:1
39,32:1
39,36:3
39,37:3
39,41:3
39,42:3
39,44:1
40,7:1
40,11:1
40,15:1
40,19:1
40,21:2
40,23:1
40,25:2
40,27:2
40,30:2
40,31:1
40,32:1
40,36:3
40,37:3
40,41:3
40,42:3
40,44:1
43,7:1
43,11:1
43,15:1
43,19:1
43,21:2
43,23:1
43,25:2
43,27:2
43,30:2
43,31:1
43,32:1
43,36:3
43,37:3
43,41:3
43,42:3
43,44:1
44,21:1
44,25:1
44,27:1
44,30:1
44,36:2
44,37:2
44,41:2
44,42:2
45,1:1
45,2:1
45,6:1
45,7:2
45,11:2
45,13:1
45,15:2
45,17:1
45,19:2
45,20:1
45,21:3
45,23:2
45,24:1
45,25:3
45,27:3
45,28:1
45,30:3
45,31:2
45,32:2
45,35:1
45,36:4
45,37:4
45,39:1
45,40:1
45,41:4
45,42:4
45,43:1
45,44:2
46,1:2
46,2:2
46,5:1
46,6:2
46,7:3
46,8:1
46,11:3
46,12:1
46,13:2
46,14:1
46,15:3
46,16:1
46,17:2
46,18:1
46,19:3
46,20:2
46,21:4
46,23:3
46,24:2
46,25:4
46,26:1
46,27:4
46,28:2
46,29:1
46,30:4
46,31:3
46,32:3
46,33:1
46,34:1
46,35:2
46,36:5
46,37:5
46,38:1
46,39:2
46,40:2
46,41:5
46,42:5
46,43:2
46,44:3
46,45:1
46,49:1
47,1:2
47,2:2
47,5:1
47,6:2
47,7:3
47,8:1
47,11:3
47,12:1
47,13:2
47,14:1
47,15:3
47,16:1
47,17:2
47,18:1
47,19:3
47,20:2
47,21:4
47,23:3
47,24:2
47,25:4
47,26:1
47,27:4
47,28:2
47,29:1
47,30:4
47,31:3
47,32:3
47,33:1
47,34:1
47,35:2
47,36:5
47,37:5
47,38:1
47,39:2
47,40:2
47,41:5
47,42:5
47,43:2
47,44:3
47,45:1
47,49:1
48,1:2
48,2:2
48,5:1
48,6:2
48,7:3
48,8:1
48,11:3
48,12:1
48,13:2
48,14:1
48,15:3
48,16:1
48,17:2
48,18:1
48,19:3
48,20:2
48,21:4
48,23:3
48,24:2
48,25:4
48,26:1
48,27:4
48,28:2
48,29:1
48,30:4
48,31:3
48,32:3
48,33:1
48,34:1
48,35:2
48,36:5
48,37:5
48,38:1
48,39:2
48,40:2
48,41:5
48,42:5
48,43:2
48,44:3
48,45:1
48,49:1
48,51:5
48,52:5
48,53:5
48,54:5
48,56:5
49,1:1
49,2:1
49,6:1
49,7:2
49,11:2
49,13:1
49,15:2
49,17:1
49,19:2
49,20:1
49,21:3
49,23:2
49,24:1
49,25:3
49,27:3
49,28:1
49,30:3
49,31:2
49,32:2
49,35:1
49,36:4
49,37:4
49,39:1
49,40:1
49,41:4
49,42:4
49,43:1
49,44:2
49,51:4
49,52:4
49,53:4
49,54:4
49,55:4
49,56:4
50,1:2
50,2:2
50,5:1
50,6:2
50,7:3
50,8:1
50,11:3
50,12:1
50,13:2
50,14:1
50,15:3
50,16:1
50,17:2
50,18:1
50,19:3
50,20:2
50,21:4
50,23:3
50,24:2
50,25:4
50,26:1
50,27:4
50,28:2
50,29:1
50,30:4
50,31:3
50,32:3
50,33:1
50,34:1
50,35:2
50,36:5
50,37:5
50,38:1
50,39:2
50,40:2
50,41:5
50,42:5
50,43:2
50,44:3
50,45:1
50,49:1
50,51:5
50,52:5
50,53:5
50,54:5
50,55:5
50,56:5
57,1:2
57,2:2
57,5:1
57,6:2
57,7:3
57,8:1
57,11:3
57,12:1
57,13:2
57,14:1
57,15:3
57,16:1
57,17:2
57,18:1
57,19:3
57,20:2
57,21:4
57,23:3
57,24:2
57,25:4
57,26:1
57,27:4
57,28:2
57,29:1
57,30:4
57,31:3
57,32:3
57,33:1
57,34:1
57,35:2
57,36:5
57,37:5
57,38:1
57,39:2
57,40:2
57,41:5
57,42:5
57,43:2
57,44:3
57,45:1
57,49:1
57,51:5
57,52:5
57,53:5
57,54:5
57,55:5
57,56:5
58,1:2
58,2:2
58,5:1
58,6:2
58,7:3
58,8:1
58,11:3
58,12:1
58,13:2
58,14:1
58,15:3
58,16:1
58,17:2
58,18:1
58,19:3
58,20:2
58,21:4
58,23:3
58,24:2
58,25:4
58,26:1
58,27:4
58,28:2
58,29:1
58,30:4
58,31:3
58,32:3
58,33:1
58,34:1
58,35:2
58,36:5
58,37:5
58,38:1
58,39:2
58,40:2
58,41:5
58,42:5
58,43:2
58,44:3
58,45:1
58,49:1
58,51:5
58,52:5
58,53:5
58,54:5
58,55:5
58,56:5

<end>

<optimal SALBP-1 value>
17


<rand seed>
467321153

